interdiction/MCDM/NO_CORR/GEN_FROM_60/10_ITEMS_1000_GEN/K5011W20.KNP.mps
NAME          BLANK   
ROWS
 N  OBJROW
 L  R0000000
COLUMNS
    C0000000  OBJROW     -865.         R0000000  340.        
    C0000001  OBJROW     -379.         R0000000  662.        
    C0000002  OBJROW     -9.           R0000000  136.        
    C0000003  OBJROW     -281.         R0000000  866.        
    C0000004  OBJROW     -79.          R0000000  532.        
    C0000005  OBJROW     -480.         R0000000  946.        
    C0000006  OBJROW     -586.         R0000000  211.        
    C0000007  OBJROW     -641.         R0000000  119.        
    C0000008  OBJROW     -922.         R0000000  289.        
    C0000009  OBJROW     -845.         R0000000  56.         
    C0000010  OBJROW     -356.         R0000000  883.        
RHS
    RHS       R0000000  15098.      
BOUNDS
 BV BOUND     C0000000  1.          
 BV BOUND     C0000001  1.          
 BV BOUND     C0000002  1.          
 BV BOUND     C0000003  1.          
 BV BOUND     C0000004  1.          
 BV BOUND     C0000005  1.          
 BV BOUND     C0000006  1.          
 BV BOUND     C0000007  1.          
 BV BOUND     C0000008  1.          
 BV BOUND     C0000009  1.          
 BV BOUND     C0000010  1.          
ENDATA
