interdiction/MCDM/NO_CORR/GEN_FROM_60/10_ITEMS_1000_GEN/K5011W20.KNP.txt
N 11
M 12
LC 11
LC 12
LC 13
LC 14
LC 15
LC 16
LC 17
LC 18
LC 19
LC 20
LC 21
LR 1
LR 2
LR 3
LR 4
LR 5
LR 6
LR 7
LR 8
LR 9
LR 10
LR 11
LR 12
LO -865
LO -379
LO -9
LO -281
LO -79
LO -480
LO -586
LO -641
LO -922
LO -845
LO -356
OS 1
IC 313
IC 611
IC 279
IC 654
IC 860
IC 196
IC 682
IC 424
IC 625
IC 495
IC 186
IB 2663
